c 88_3_checker_5cl.cnf
c
c field = 88
c formula set type = 3_checker_5cl
c
p cnf 5 12
170 
172 
176 
-179 
-168 
171 
173 
177 
-178 
-169 
172 
176 
178 
-171 
-168 
173 
177 
179 
-170 
-169 
110 
142 
206 
-239 
-78 
111 
143 
207 
-238 
-79 
142 
206 
238 
-111 
-78 
143 
207 
239 
-110 
-79 
118 
146 
202 
-231 
-258 
119 
147 
203 
-230 
-259 
146 
202 
230 
-119 
-258 
147 
203 
231 
-118 
-259 
